c This is QMaxSAT 2017 based on 14.07
c This is Glucose 3.0
c This is MiniSat 2.2.0
c WARNING: for repeatability, setting FPU to use double precision
c card = mrwto, comp = 0, pmodel = 0, narr = 8, mct = 76, verb = 0
cr firstCPXsol 0 0 0
c top = 189219
c |  Number of variables:    13778                                            |
c |  Number of clauses:      1055191                                          |
c |  Weight of hard clauses: 189219                                           |
c |  Number of soft clauses: 54000                                            |
c |  Number of unit soft clauses: 0                                           |
c |  Maximum Cardinality (by unit): 1778736      (0           )               |
c last restart ## conflicts  :  18 2550 
o 1468 | cpuTime 0.158825 s
c Sum of weights = 222342
c A number of soft clauses remained = 6750
c MRWTO encoding for Pseudo-Boolean Constraints
c sizeMax=1468
c No.0 Divisor=12	generated by pow1
c No.1 Divisor=12	generated by pow1
c No.2 Divisor=12	generated by pow1
c p0= 12	p1= 12	p2= 12	
c number of digits = 4
c linkingVar[0].size = 12, linkingVar[1].size = 12, linkingVar[2].size = 11, linkingVar[3].size = 1, 
c Pseudo-Boolean Constraints: 136116 variables and 1229699 clauses
c Sum of weights = 222342
c A number of soft clauses remained = 6750
c MRWTO encoding for Pseudo-Boolean Constraints
c sizeMax=1468
c No.0 Divisor=12	generated by pow1
c No.1 Divisor=12	generated by pow1
c No.2 Divisor=12	generated by pow1
c p0= 12	p1= 12	p2= 12	
c number of digits = 4
c linkingVar[0].size = 12, linkingVar[1].size = 12, linkingVar[2].size = 11, linkingVar[3].size = 1, 
c Pseudo-Boolean Constraints: 136116 variables and 1229699 clauses
c Sum of weights = 222342
c A number of soft clauses remained = 6750
c MRWTO encoding for Pseudo-Boolean Constraints
c sizeMax=1468
c No.0 Divisor=12	generated by pow1
c No.1 Divisor=12	generated by pow1
c No.2 Divisor=12	generated by pow1
c p0= 12	p1= 12	p2= 12	
c number of digits = 4
c linkingVar[0].size = 12, linkingVar[1].size = 12, linkingVar[2].size = 11, linkingVar[3].size = 1, 
c Pseudo-Boolean Constraints: 136116 variables and 1229699 clauses
c Sum of weights = 222342
c A number of soft clauses remained = 6750
c MRWTO encoding for Pseudo-Boolean Constraints
c sizeMax=1468
c No.0 Divisor=12	generated by pow1
c No.1 Divisor=12	generated by pow1
c No.2 Divisor=12	generated by pow1
c p0= 12	p1= 12	p2= 12	
c number of digits = 4
c linkingVar[0].size = 12, linkingVar[1].size = 12, linkingVar[2].size = 11, linkingVar[3].size = 1, 
c Pseudo-Boolean Constraints: 136116 variables and 1229699 clauses
c Sum of weights = 222342
c A number of soft clauses remained = 6750
c MRWTO encoding for Pseudo-Boolean Constraints
c sizeMax=1468
c No.0 Divisor=12	generated by pow1
c No.1 Divisor=12	generated by pow1
c No.2 Divisor=12	generated by pow1
c p0= 12	p1= 12	p2= 12	
c number of digits = 4
c linkingVar[0].size = 12, linkingVar[1].size = 12, linkingVar[2].size = 11, linkingVar[3].size = 1, 
c Pseudo-Boolean Constraints: 136116 variables and 1229699 clauses
c Sum of weights = 222342
c A number of soft clauses remained = 6750
c MRWTO encoding for Pseudo-Boolean Constraints
c sizeMax=1468
c No.0 Divisor=12	generated by pow1
c No.1 Divisor=12	generated by pow1
c No.2 Divisor=12	generated by pow1
c p0= 12	p1= 12	p2= 12	
c number of digits = 4
c linkingVar[0].size = 12, linkingVar[1].size = 12, linkingVar[2].size = 11, linkingVar[3].size = 1, 
c Pseudo-Boolean Constraints: 136116 variables and 1229699 clauses
c Sum of weights = 222342
c A number of soft clauses remained = 6750
c MRWTO encoding for Pseudo-Boolean Constraints
c sizeMax=1468
c No.0 Divisor=12	generated by pow1
c No.1 Divisor=12	generated by pow1
c No.2 Divisor=12	generated by pow1
c p0= 12	p1= 12	p2= 12	
c number of digits = 4
c linkingVar[0].size = 12, linkingVar[1].size = 12, linkingVar[2].size = 11, linkingVar[3].size = 1, 
c Pseudo-Boolean Constraints: 136116 variables and 1229699 clauses
c Sum of weights = 222342
c A number of soft clauses remained = 6750
c MRWTO encoding for Pseudo-Boolean Constraints
c sizeMax=1468
c No.0 Divisor=12	generated by pow1
c No.1 Divisor=12	generated by pow1
c No.2 Divisor=12	generated by pow1
c p0= 12	p1= 12	p2= 12	
c number of digits = 4
c linkingVar[0].size = 12, linkingVar[1].size = 12, linkingVar[2].size = 11, linkingVar[3].size = 1, 
c Pseudo-Boolean Constraints: 136116 variables and 1229699 clauses
c last restart ## conflicts  :  180 24452 
o 737 | cpuTime 5.09079 s
c last restart ## conflicts  :  759 9966 
o 679 | cpuTime 10.3774 s
c last restart ## conflicts  :  232 15347 
o 665 | cpuTime 26.1334 s
c last restart ## conflicts  :  689 32944 
o 656 | cpuTime 41.9483 s
c last restart ## conflicts  :  440 12680 
o 569 | cpuTime 47.6047 s
c last restart ## conflicts  :  754 9271 
o 535 | cpuTime 60.0519 s
c last restart ## conflicts  :  607 8325 
o 490 | cpuTime 111.77 s
c last restart ## conflicts  :  960 6992 
o 421 | cpuTime 180.467 s
c last restart ## conflicts  :  437 13456 
o 386 | cpuTime 615.557 s
c last restart ## conflicts  :  450 15348 
o 351 | cpuTime 897.447 s
c last restart ## conflicts  :  257 5200 
o 345 | cpuTime 3386.05 s
s UNKNOWN
c Search is stopped by a limit (maybe time-limit)
cr positiVarArr: [ | 66(1->59) | 164(1->74) | 183(1->10) | 271(1->15) | 382(1->43) | 428(1->6) | 545(1->40) | 591(1->3) | 701(2->30) | 763(3->9) | 912(4->75) | 931(5->11) | 1017(6->14) | 1082(7->1) | 1191(8->22) | 1303(9->51) | 1343(10->8) | 1470(11->52) | 1550(12->49) | 1641(13->57) | 1686(14->19) | 1776(15->26) | 1834(16->1) | 1932(17->16) | 2041(18->42) | 2136(19->54) | 2194(20->29) | 2276(21->28) | 2351(22->20) | 2413(23->1) | 2495(24->1) | 2619(25->39) | 2739(26->76) | 2780(27->34) | 2826(28->1) | 2957(29->45) | 3045(30->50) | 3090(31->12) | 3156(32->1) | 3244(33->1) | 3399(34->72) | 3448(35->38) | 3528(36->35) | 3612(37->36) | 3724(38->65) | 3760(39->18) | 3866(40->41) | 3975(41->67) | 4035(42->44) | 4097(43->23) | 4174(44->17) | 4277(45->37) | 4330(46->7) | 4419(47->13) | 4544(48->55) | 4645(49->73) | 4719(50->64) | 4806(51->68) | 4867(52->46) | 4967(53->63) | 4992(54->5) | 5117(55->47) | 5206(56->53) | 5268(57->32) | 5344(58->25) | 5458(59->56) | 5506(60->21) | 5601(61->33) | 5645(62->1) | 5795(63->61) | 5821(64->4) | 5924(65->24) | 6014(66->31) | 6093(67->27) | 6197(68->48) | 6303(69->71) | 6375(70->60) | 6468(71->70) | 6539(72->58) | 6626(73->62) | 6649(74->2) | 6796(75->66) | 6882(76->69) | ]
cr the 1-th chain: [ 1->59->56->53->63->61->33->1 ] (#non-depot=6) {#cumul.=7}
cr the 2-th chain: [ 1->74->2->30->50->64->4->75->66->31->12->49->73->62->1 ] (#non-depot=13) {#cumul.=20}
cr the 3-th chain: [ 1->10->8->22->20->29->45->37->36->35->38->65->24->1 ] (#non-depot=12) {#cumul.=32}
cr the 4-th chain: [ 1->15->26->76->69->71->70->60->21->28->1 ] (#non-depot=9) {#cumul.=41}
cr the 5-th chain: [ 1->43->23->1 ] (#non-depot=2) {#cumul.=43}
cr the 6-th chain: [ 1->6->14->19->54->5->11->52->46->7->1 ] (#non-depot=9) {#cumul.=52}
cr the 7-th chain: [ 1->40->41->67->27->34->72->58->25->39->18->42->44->17->16->1 ] (#non-depot=14) {#cumul.=66}
cr the 8-th chain: [ 1->3->9->51->68->48->55->47->13->57->32->1 ] (#non-depot=10) {#cumul.=76}
c Latest Answer = 0 by 12 loops
c restarts              : 30888
c conflicts             : 5485958        (1526 /sec)
c decisions             : 98591345       (0.00 % random) (27422 /sec)
c propagations          : 35998506483    (10012526 /sec)
c conflict literals     : 820194881      (38.36 % deleted)
c Memory used           : 1446.00 MB
c CPU time              : 3595.35 s
